p cnf 230 230
1 0
2 0
3 0
4 0
5 0
6 0
7 0
8 0
9 0
10 0
11 0
12 0
13 0
14 0
15 0
16 0
17 0
18 0
19 0
20 0
21 0
22 0
23 0
24 0
25 0
26 0
27 0
28 0
29 0
30 0
31 0
32 0
33 0
34 0
35 0
36 0
37 0
38 0
39 0
40 0
41 0
42 0
43 0
44 0
45 0
46 0
47 0
48 0
49 0
50 0
51 0
52 0
53 0
54 0
55 0
56 0
57 0
58 0
59 0
60 0
61 0
62 0
63 0
64 0
65 0
66 0
67 0
68 0
69 0
70 0
71 0
72 0
73 0
74 0
75 0
76 0
77 0
78 0
79 0
80 0
81 0
82 0
83 0
84 0
85 0
86 0
87 0
88 0
89 0
90 0
91 0
92 0
93 0
94 0
95 0
96 0
97 0
98 0
99 0
100 0
101 0
102 0
103 0
104 0
105 0
106 0
107 0
108 0
109 0
110 0
111 0
112 0
113 0
114 0
115 0
116 0
117 0
118 0
119 0
120 0
121 0
122 0
123 0
124 0
125 0
126 0
127 0
128 0
129 0
130 0
131 0
132 0
133 0
134 0
135 0
136 0
137 0
138 0
139 0
140 0
141 0
142 0
143 0
144 0
145 0
146 0
147 0
148 0
149 0
150 0
151 0
152 0
153 0
154 0
155 0
156 0
157 0
158 0
159 0
160 0
161 0
162 0
163 0
164 0
165 0
166 0
167 0
168 0
169 0
170 0
171 0
172 0
173 0
174 0
175 0
176 0
177 0
178 0
179 0
180 0
181 0
182 0
183 0
184 0
185 0
186 0
187 0
188 0
189 0
190 0
191 0
192 0
193 0
194 0
195 0
196 0
197 0
198 0
199 0
200 0
201 0
202 0
203 0
204 0
205 0
206 0
207 0
208 0
209 0
210 0
211 0
212 0
213 0
214 0
215 0
216 0
217 0
218 0
219 0
220 0
221 0
222 0
223 0
224 0
225 0
226 0
227 0
228 0
229 0
230 0
c 1 pbeq
c 2 pbeq
c 3 pbeq
c 4 pbeq
c 5 pbeq
c 6 pbeq
c 7 pbeq
c 8 pbeq
c 9 pbeq
c 10 pbeq
c 11 pbeq
c 12 pbeq
c 13 pbeq
c 14 pbeq
c 15 pbeq
c 16 pbeq
c 17 pbeq
c 18 pbeq
c 19 pbeq
c 20 pbeq
c 21 pbeq
c 22 pbeq
c 23 pbeq
c 24 pbeq
c 25 pbeq
c 26 pbeq
c 27 pbeq
c 28 pbeq
c 29 pbeq
c 30 pbeq
c 31 pbeq
c 32 pbeq
c 33 pbeq
c 34 pbeq
c 35 pbeq
c 36 pbeq
c 37 pbeq
c 38 pbeq
c 39 pbeq
c 40 pbeq
c 41 pbeq
c 42 pbeq
c 43 pbeq
c 44 pbeq
c 45 pbeq
c 46 pbeq
c 47 pbeq
c 48 pbeq
c 49 pbeq
c 50 pbeq
c 51 pbeq
c 52 pbeq
c 53 pbeq
c 54 pbeq
c 55 pbeq
c 56 pbeq
c 57 pbeq
c 58 pbeq
c 59 pbeq
c 60 pbeq
c 61 pbeq
c 62 pbeq
c 63 pbeq
c 64 pbeq
c 65 pbeq
c 66 pbeq
c 67 pbeq
c 68 pbeq
c 69 pbeq
c 70 pbeq
c 71 pbeq
c 72 pbeq
c 73 pbeq
c 74 pbeq
c 75 pbeq
c 76 pbeq
c 77 pbeq
c 78 pbeq
c 79 pbeq
c 80 pbeq
c 81 pbeq
c 82 pbeq
c 83 pbeq
c 84 pbeq
c 85 pbeq
c 86 pbeq
c 87 pbeq
c 88 pbeq
c 89 pbeq
c 90 pbeq
c 91 pbeq
c 92 pbeq
c 93 pbeq
c 94 pbeq
c 95 pbeq
c 96 pbeq
c 97 pbeq
c 98 pbeq
c 99 pbeq
c 100 pbeq
c 101 pbeq
c 102 pbeq
c 103 pbeq
c 104 pbeq
c 105 pbeq
c 106 pbeq
c 107 pbeq
c 108 pbeq
c 109 pbeq
c 110 pbeq
c 111 pbeq
c 112 pbeq
c 113 pbeq
c 114 pbeq
c 115 pbeq
c 116 pbeq
c 117 pbeq
c 118 pbeq
c 119 pbeq
c 120 pbeq
c 121 pbeq
c 122 pbeq
c 123 pbeq
c 124 pbeq
c 125 pbeq
c 126 pbeq
c 127 pbeq
c 128 pbeq
c 129 pbeq
c 130 pbeq
c 131 pbeq
c 132 pbeq
c 133 pbeq
c 134 pbeq
c 135 pbeq
c 136 pbeq
c 137 pbeq
c 138 pbeq
c 139 pbeq
c 140 pbeq
c 141 pbeq
c 142 pbeq
c 143 pbeq
c 144 pbeq
c 145 pbeq
c 146 pbeq
c 147 pbeq
c 148 pbeq
c 149 pbeq
c 150 pbeq
c 151 pbeq
c 152 pbeq
c 153 pbeq
c 154 pbeq
c 155 pbeq
c 156 pbeq
c 157 pbeq
c 158 pbeq
c 159 pbeq
c 160 pbeq
c 161 pbeq
c 162 pbeq
c 163 pbeq
c 164 pbeq
c 165 pbeq
c 166 pbeq
c 167 pbeq
c 168 pbeq
c 169 pbeq
c 170 pbeq
c 171 pbeq
c 172 pbeq
c 173 pbeq
c 174 pbeq
c 175 pbeq
c 176 pbeq
c 177 pbeq
c 178 pbeq
c 179 pbeq
c 180 pbeq
c 181 at-most
c 182 at-most
c 183 at-most
c 184 at-most
c 185 at-most
c 186 at-most
c 187 at-most
c 188 at-most
c 189 at-most
c 190 at-most
c 191 at-most
c 192 at-most
c 193 at-most
c 194 at-most
c 195 at-most
c 196 at-most
c 197 at-most
c 198 at-most
c 199 at-most
c 200 at-most
c 201 at-most
c 202 at-most
c 203 at-most
c 204 at-most
c 205 at-most
c 206 at-most
c 207 at-most
c 208 at-most
c 209 at-most
c 210 at-most
c 211 at-most
c 212 at-most
c 213 at-most
c 214 at-most
c 215 at-most
c 216 at-most
c 217 at-most
c 218 at-most
c 219 at-most
c 220 at-most
c 221 at-most
c 222 at-most
c 223 at-most
c 224 at-most
c 225 at-most
c 226 at-most
c 227 at-most
c 228 at-most
c 229 at-most
c 230 at-most
